TYPE : Vertex Cover
DIMENSION: 29
EDGE_DATA_SECTION:
0 4
0 5
0 14
0 22
0 25
1 2
1 4
1 9
1 13
1 15
1 19
1 25
2 3
2 6
2 9
2 17
2 18
2 20
2 22
3 7
3 8
3 11
3 13
3 15
4 12
4 17
4 20
4 21
4 24
4 25
5 8
5 9
5 10
5 15
5 27
6 8
6 10
6 17
6 18
7 8
7 9
7 10
7 12
7 14
7 15
7 21
7 26
8 9
8 11
8 16
8 17
8 27
9 11
9 12
9 15
9 19
9 24
9 25
9 26
10 12
10 15
10 16
10 18
10 23
10 24
11 17
11 19
11 25
11 27
11 28
12 16
12 21
12 23
12 26
12 27
13 19
13 20
13 21
13 24
13 25
13 26
13 27
13 28
14 16
14 19
15 17
15 21
15 26
15 27
16 27
17 20
17 24
17 26
18 21
19 24
19 25
19 26
19 28
20 22
20 25
20 26
20 27
20 28
21 24
22 26
22 28
23 27
23 28
24 26
25 26
25 27
-1
VERTEX_DEGREE:
5.0 7.0 8.0 6.0 8.0 6.0 5.0 9.0 9.0 12.0 9.0 8.0 9.0 10.0 4.0 10.0 5.0 9.0 4.0 9.0 9.0 7.0 5.0 4.0 8.0 10.0 11.0 10.0 6.0
VERTEX_COVER:
0 2 3 4 6 8 9 10 12 13 14 15 17 19 20 21 25 26 27 28
EOF
